out/bwp_7_8_1_lp.out
6
3 0    3 0
4 0    4 0
4 4    5 5
3 4    3 5
6 4    6 5
0 0    2 2
4 1    6 3
0 3    2 5
