out/bwp_7_8_1_lp.log
Tried aggregator 2 times.
MIP Presolve eliminated 14 rows and 7 columns.
MIP Presolve modified 142 coefficients.
Aggregator did 142 substitutions.
Reduced MIP has 601 rows, 549 columns, and 1436 nonzeros.
Reduced MIP has 338 binaries, 17 generals, 0 SOSs, and 112 indicators.
Presolve time = 0.00 sec. (1.40 ticks)
Found incumbent of value 17.000000 after 0.01 sec. (2.44 ticks)
Probing fixed 15 vars, tightened 80 bounds.
Probing time = 0.01 sec. (2.43 ticks)
Tried aggregator 3 times.
MIP Presolve eliminated 25 rows and 24 columns.
MIP Presolve modified 108 coefficients.
Aggregator did 188 substitutions.
Reduced MIP has 388 rows, 337 columns, and 1041 nonzeros.
Reduced MIP has 263 binaries, 74 generals, 0 SOSs, and 102 indicators.
Presolve time = 0.01 sec. (2.01 ticks)
Probing time = 0.00 sec. (1.04 ticks)
Tried aggregator 1 time.
Reduced MIP has 388 rows, 337 columns, and 1041 nonzeros.
Reduced MIP has 263 binaries, 74 generals, 0 SOSs, and 102 indicators.
Presolve time = 0.00 sec. (0.53 ticks)
Probing time = 0.00 sec. (1.04 ticks)
Clique table members: 253.
MIP emphasis: balance optimality and feasibility.
MIP search method: dynamic search.
Parallel mode: deterministic, using up to 4 threads.
Root relaxation solution time = 0.00 sec. (0.95 ticks)

        Nodes                                         Cuts/
   Node  Left     Objective  IInf  Best Integer    Best Bound    ItCnt     Gap

*     0+    0                           17.0000        6.0000      118   64.71%
      0     0        6.0000   146       17.0000        6.0000      118   64.71%
      0     0        6.0000    58       17.0000      Cuts: 40      157   64.71%
      0     0        6.0000    80       17.0000      Cuts: 68      195   64.71%
      0     0        6.0000    27       17.0000      Cuts: 10      210   64.71%
      0     0        6.0000    34       17.0000      Cuts: 45      222   64.71%
*     0+    0                           11.0000        6.0000      222   45.45%
*     0+    0                           10.0000        6.0000      222   40.00%
*     0+    0                            6.0000        6.0000      222    0.00%
      0     0        cutoff              6.0000        6.0000      222    0.00%
Elapsed time = 0.11 sec. (40.97 ticks, tree = 0.00 MB, solutions = 4)

Clique cuts applied:  6
Cover cuts applied:  14
Implied bound cuts applied:  39
Mixed integer rounding cuts applied:  2
Zero-half cuts applied:  13
Gomory fractional cuts applied:  19

Root node processing (before b&c):
  Real time             =    0.11 sec. (41.00 ticks)
Parallel b&c, 4 threads:
  Real time             =    0.00 sec. (0.00 ticks)
  Sync time (average)   =    0.00 sec.
  Wait time (average)   =    0.00 sec.
                          ------------
Total (root+branch&cut) =    0.11 sec. (41.00 ticks)
